NAME : X_30_seed_123_id_11
TYPE : CVRP
DIMENSION : 237
EDGE_WEIGHT_TYPE : EUC_2D
CAPACITY : 18
NODE_COORD_SECTION
1	0	0
2	167	884
3	942	742
4	885	287
5	830	350
6	413	17
7	869	130
8	816	497
9	711	310
10	157	915
11	271	119
12	147	405
13	249	841
14	789	379
15	677	36
16	468	839
17	898	636
18	475	370
19	153	426
20	698	836
21	734	339
22	751	775
23	887	725
24	56	39
25	921	435
26	845	626
27	780	202
28	282	844
29	509	895
30	914	958
31	525	461
32	6	503
33	956	446
34	846	413
35	80	593
36	927	914
37	441	857
38	592	753
39	859	872
40	980	932
41	234	926
42	710	923
43	680	295
44	331	709
45	960	172
46	9	587
47	850	835
48	135	518
49	648	207
50	791	308
51	621	794
52	458	970
53	27	349
54	883	983
55	296	217
56	18	106
57	142	651
58	90	237
59	541	648
60	291	670
61	890	535
62	341	829
63	80	496
64	643	482
65	346	664
66	353	938
67	471	233
68	41	398
69	669	458
70	510	521
71	246	311
72	603	326
73	258	338
74	878	590
75	204	863
76	562	310
77	768	519
78	134	358
79	391	173
80	128	65
81	605	66
82	442	523
83	414	995
84	946	964
85	765	145
86	342	262
87	685	526
88	214	535
89	544	559
90	861	630
91	891	609
92	392	937
93	798	63
94	958	759
95	486	896
96	992	544
97	610	870
98	760	986
99	392	772
100	627	892
101	309	616
102	886	650
103	313	30
104	237	170
105	928	924
106	2	823
107	948	250
108	345	960
109	375	142
110	899	587
111	469	599
112	672	80
113	790	474
114	860	590
115	638	744
116	980	430
117	957	957
118	235	216
119	250	592
120	233	524
121	490	967
122	621	423
123	114	674
124	754	986
125	153	365
126	178	771
127	43	156
128	936	956
129	54	123
130	513	829
131	432	745
132	585	192
133	795	733
134	175	399
135	781	690
136	462	957
137	535	156
138	99	609
139	707	347
140	669	852
141	582	699
142	177	38
143	306	94
144	783	92
145	863	909
146	824	717
147	432	798
148	231	707
149	587	171
150	942	44
151	947	94
152	107	64
153	541	920
154	655	53
155	116	740
156	394	179
157	554	245
158	760	834
159	500	864
160	528	57
161	488	399
162	354	145
163	952	327
164	63	210
165	235	364
166	971	127
167	249	829
168	911	186
169	799	584
170	313	292
171	530	890
172	453	23
173	180	772
174	989	387
175	808	344
176	241	448
177	269	938
178	294	56
179	848	510
180	760	487
181	241	287
182	335	594
183	980	796
184	938	243
185	896	883
186	728	726
187	987	74
188	305	281
189	460	683
190	484	72
191	756	459
192	947	243
193	472	196
194	388	94
195	413	860
196	654	292
197	957	852
198	874	572
199	147	153
200	673	386
201	728	448
202	613	462
203	722	427
204	127	287
205	704	701
206	859	948
207	722	745
208	5	578
209	860	488
210	964	716
211	427	959
212	843	873
213	536	709
214	111	909
215	89	91
216	533	553
217	265	237
218	859	340
219	388	643
220	970	503
221	404	120
222	211	834
223	505	737
224	93	479
225	635	125
226	345	395
227	909	878
228	136	305
229	93	630
230	976	747
231	749	86
232	46	401
233	132	11
234	800	471
235	357	537
236	565	900
237	514	851
DEMAND_SECTION
1	0
2	1
3	1
4	1
5	1
6	1
7	1
8	1
9	1
10	1
11	1
12	1
13	1
14	1
15	1
16	1
17	1
18	1
19	1
20	1
21	1
22	1
23	1
24	1
25	1
26	1
27	1
28	1
29	1
30	1
31	1
32	1
33	1
34	1
35	1
36	1
37	1
38	1
39	1
40	1
41	1
42	1
43	1
44	1
45	1
46	1
47	1
48	1
49	1
50	1
51	1
52	1
53	1
54	1
55	1
56	1
57	1
58	1
59	1
60	1
61	1
62	1
63	1
64	1
65	1
66	1
67	1
68	1
69	1
70	1
71	1
72	1
73	1
74	1
75	1
76	1
77	1
78	1
79	1
80	1
81	1
82	1
83	1
84	1
85	1
86	1
87	1
88	1
89	1
90	1
91	1
92	1
93	1
94	1
95	1
96	1
97	1
98	1
99	1
100	1
101	1
102	1
103	1
104	1
105	1
106	1
107	1
108	1
109	1
110	1
111	1
112	1
113	1
114	1
115	1
116	1
117	1
118	1
119	1
120	1
121	1
122	1
123	1
124	1
125	1
126	1
127	1
128	1
129	1
130	1
131	1
132	1
133	1
134	1
135	1
136	1
137	1
138	1
139	1
140	1
141	1
142	1
143	1
144	1
145	1
146	1
147	1
148	1
149	1
150	1
151	1
152	1
153	1
154	1
155	1
156	1
157	1
158	1
159	1
160	1
161	1
162	1
163	1
164	1
165	1
166	1
167	1
168	1
169	1
170	1
171	1
172	1
173	1
174	1
175	1
176	1
177	1
178	1
179	1
180	1
181	1
182	1
183	1
184	1
185	1
186	1
187	1
188	1
189	1
190	1
191	1
192	1
193	1
194	1
195	1
196	1
197	1
198	1
199	1
200	1
201	1
202	1
203	1
204	1
205	1
206	1
207	1
208	1
209	1
210	1
211	1
212	1
213	1
214	1
215	1
216	1
217	1
218	1
219	1
220	1
221	1
222	1
223	1
224	1
225	1
226	1
227	1
228	1
229	1
230	1
231	1
232	1
233	1
234	1
235	1
236	1
237	1
DEPOT_SECTION
1
-1
EOF
